(set-info :status sat)
(declare-const symbol_0 (_ BitVec 32))
(declare-const symbol_1 (_ BitVec 32))
(declare-const symbol_2 (_ BitVec 32))
(assert (not (= symbol_2 (_ bv4 32))))
(assert (not (not (= symbol_2 (_ bv2 32)))))
(assert (not (not (= symbol_1 (_ bv2 32)))))
(assert (not (not (= symbol_0 (_ bv2 32)))))
(check-sat)